p cnf 75 290
d 1 2
d 2 2
d 3 2
d 4 2
d 5 2
d 6 2
d 7 2
d 8 2
d 9 2
d 10 2
d 11 2
d 12 2
d 13 2
d 14 2
d 15 2
d 16 2
d 17 2
d 18 2
d 19 2
d 20 2
d 21 2
d 22 2
d 23 2
d 24 2
d 25 2
d 26 2
d 27 2
d 28 2
d 29 2
d 30 2
d 31 2
d 32 2
d 33 2
d 34 2
d 35 2
d 36 2
d 37 2
d 38 2
d 39 2
d 40 2
d 41 2
d 42 2
d 43 2
d 44 2
d 45 2
d 46 2
d 47 2
d 48 2
d 49 2
d 50 2
d 51 2
d 52 2
d 53 2
d 54 2
d 55 2
d 56 2
d 57 2
d 58 2
d 59 2
d 60 2
d 61 2
d 62 2
d 63 2
d 64 2
d 65 2
d 66 2
d 67 2
d 68 2
d 69 2
d 70 2
d 71 2
d 72 2
d 73 2
d 74 2
d 75 2
6=1 10=0 54=1 0
46=0 18=0 57=1 0
21=1 35=0 58=1 0
60=1 1=0 23=1 0
44=0 58=1 28=0 0
2=1 13=1 19=0 0
13=1 31=0 17=1 0
21=1 64=1 71=1 0
36=1 25=1 59=0 0
55=0 42=0 65=1 0
5=0 33=1 31=1 0
36=0 16=1 27=1 0
55=1 45=0 40=1 0
67=1 4=0 15=0 0
59=1 50=0 56=0 0
16=0 47=1 63=0 0
42=1 49=0 11=0 0
17=0 48=0 15=0 0
44=0 21=1 49=0 0
59=0 30=0 39=0 0
75=1 31=0 15=1 0
41=1 39=0 4=0 0
27=1 17=1 59=1 0
17=1 42=0 28=1 0
17=0 50=0 70=0 0
59=0 17=1 68=1 0
4=0 1=0 43=1 0
11=0 67=0 46=1 0
63=1 32=0 75=0 0
20=1 23=1 67=0 0
36=1 40=1 33=0 0
43=1 61=1 62=0 0
49=0 62=0 55=0 0
68=1 45=1 70=0 0
69=0 27=1 54=0 0
1=1 37=0 45=0 0
14=0 12=1 51=1 0
69=1 7=1 6=1 0
45=0 57=1 70=0 0
70=1 15=1 57=0 0
69=0 74=0 11=0 0
75=0 32=0 52=1 0
38=0 59=1 53=1 0
8=0 38=0 12=0 0
68=0 49=1 55=1 0
1=0 63=0 55=1 0
18=1 50=1 42=1 0
33=1 1=1 26=0 0
57=0 28=0 50=1 0
5=0 73=0 49=0 0
59=0 54=0 1=0 0
20=1 11=1 45=1 0
26=0 34=0 47=0 0
56=0 68=1 2=0 0
24=0 60=0 59=0 0
27=0 36=1 65=1 0
14=0 32=1 9=0 0
31=0 64=0 3=0 0
70=0 68=1 61=0 0
56=0 47=0 26=0 0
57=0 70=0 34=0 0
29=1 16=0 5=0 0
60=1 23=0 30=0 0
25=1 61=0 56=0 0
4=1 37=1 43=0 0
9=1 8=0 16=1 0
62=1 14=0 74=0 0
46=0 62=1 60=0 0
47=1 68=0 3=0 0
55=0 14=1 34=0 0
32=0 34=0 74=1 0
34=1 18=1 39=0 0
70=0 29=0 31=0 0
25=1 51=1 64=1 0
71=1 37=1 13=0 0
42=1 65=0 36=1 0
25=1 43=0 40=0 0
40=1 41=1 56=0 0
73=0 58=1 23=1 0
62=0 49=0 31=0 0
13=0 61=0 12=0 0
37=1 27=0 28=0 0
45=1 67=0 41=0 0
16=0 35=0 6=1 0
10=0 1=1 39=1 0
54=1 59=0 40=0 0
42=0 5=1 10=1 0
12=0 1=0 40=0 0
56=0 55=1 30=0 0
49=0 6=1 51=1 0
33=1 49=0 22=1 0
39=1 19=0 9=1 0
75=1 58=0 52=1 0
69=1 30=1 23=0 0
63=1 52=1 50=1 0
14=1 9=0 52=0 0
51=0 47=0 59=0 0
73=1 29=0 64=1 0
30=0 13=0 59=1 0
72=0 37=0 16=1 0
28=1 71=1 67=1 0
20=0 39=1 64=1 0
24=1 34=0 69=1 0
11=0 55=0 58=1 0
12=1 61=0 55=1 0
60=0 6=1 72=1 0
55=1 44=0 59=1 0
17=1 46=0 13=1 0
48=0 38=1 22=0 0
43=0 28=1 59=1 0
6=1 43=1 51=1 0
14=0 55=0 25=1 0
66=0 22=0 45=1 0
52=0 33=1 22=1 0
63=1 64=1 45=1 0
52=1 43=1 15=0 0
35=0 2=0 61=1 0
28=0 21=0 41=0 0
59=1 60=0 7=1 0
47=0 46=1 62=0 0
36=1 42=1 10=1 0
73=1 60=1 34=1 0
53=1 50=0 64=1 0
64=1 8=0 17=0 0
30=1 8=1 52=1 0
43=0 60=1 66=1 0
18=1 15=1 26=1 0
45=1 4=1 29=0 0
8=1 2=1 47=0 0
38=0 75=1 39=0 0
33=1 7=0 70=0 0
65=0 67=0 26=0 0
73=0 34=0 14=0 0
70=0 17=0 52=0 0
10=1 51=1 4=0 0
31=0 18=1 8=1 0
14=1 22=1 18=0 0
28=0 18=1 67=1 0
48=0 28=1 33=0 0
52=0 46=0 5=1 0
18=0 16=1 48=0 0
46=0 72=1 71=0 0
68=1 57=0 9=0 0
70=0 10=1 74=0 0
55=1 38=1 31=1 0
5=0 53=1 59=0 0
19=1 39=1 50=1 0
58=1 57=0 28=0 0
41=1 74=1 21=0 0
46=1 25=0 53=0 0
26=1 5=0 53=0 0
4=0 69=0 64=1 0
53=0 9=1 39=1 0
52=1 35=1 9=0 0
1=1 31=0 39=1 0
34=1 19=0 44=1 0
2=0 67=0 43=0 0
66=1 55=1 7=1 0
64=1 51=0 38=0 0
54=0 38=1 17=0 0
45=1 41=1 9=1 0
20=0 4=0 52=1 0
34=0 15=1 31=1 0
72=1 37=0 27=0 0
26=1 34=1 36=0 0
33=1 75=1 5=1 0
9=1 69=1 66=0 0
48=1 69=0 10=0 0
47=1 65=1 54=1 0
5=0 12=0 15=0 0
49=0 11=1 20=1 0
9=0 15=0 41=1 0
24=1 6=1 28=0 0
70=0 72=1 59=1 0
30=0 54=0 2=0 0
65=1 68=1 74=1 0
14=1 69=0 62=0 0
9=1 75=0 56=0 0
57=0 3=0 64=1 0
5=1 25=1 12=1 0
4=0 53=1 75=1 0
37=1 35=0 69=1 0
41=1 8=0 45=1 0
44=0 15=0 57=0 0
8=1 49=0 73=1 0
11=0 38=0 49=1 0
68=1 4=0 39=0 0
25=0 29=1 73=0 0
19=0 53=0 63=0 0
42=1 49=0 55=1 0
53=0 46=0 59=1 0
6=1 5=0 54=0 0
59=1 53=1 34=1 0
61=1 44=0 17=1 0
49=1 54=0 50=1 0
67=0 29=1 71=1 0
62=0 67=0 40=1 0
45=1 41=1 53=1 0
42=0 13=1 23=0 0
30=1 51=0 32=0 0
20=1 66=0 31=1 0
73=0 40=0 18=0 0
29=1 75=0 20=1 0
15=0 59=0 19=1 0
25=0 41=0 1=0 0
14=0 9=0 8=1 0
57=1 47=0 74=1 0
54=0 4=0 50=1 0
7=0 37=1 45=0 0
26=0 5=0 23=1 0
16=1 54=0 69=0 0
40=1 72=1 2=1 0
28=1 74=1 9=0 0
8=1 43=0 58=1 0
53=0 35=1 27=1 0
16=0 46=0 66=0 0
9=0 43=0 18=0 0
30=0 75=0 31=0 0
30=1 75=0 36=1 0
60=0 41=1 47=1 0
52=0 11=1 10=0 0
15=1 31=1 29=0 0
2=0 48=0 63=1 0
38=0 17=0 65=0 0
71=1 43=1 45=1 0
57=1 30=1 72=1 0
67=0 10=0 45=0 0
25=1 21=0 1=1 0
74=0 1=1 52=1 0
44=1 16=1 59=0 0
2=1 34=1 8=0 0
23=0 19=0 74=1 0
47=0 40=1 48=0 0
29=1 55=0 14=1 0
71=0 54=0 45=1 0
24=0 31=0 30=1 0
42=1 15=0 61=1 0
1=0 64=0 53=1 0
58=0 14=0 71=0 0
60=0 52=0 66=0 0
51=0 7=0 37=0 0
57=0 61=1 17=0 0
51=0 4=1 17=0 0
11=1 28=1 46=0 0
60=0 26=1 6=0 0
33=0 66=0 38=1 0
41=0 31=1 15=0 0
65=1 51=1 70=1 0
7=0 19=1 57=0 0
60=1 19=1 26=0 0
31=1 56=0 74=1 0
2=0 15=1 66=0 0
56=0 71=0 24=1 0
52=0 23=0 17=1 0
37=1 73=0 16=0 0
55=0 6=0 45=1 0
7=1 20=0 32=0 0
27=0 41=1 21=1 0
63=1 47=1 44=1 0
43=1 18=1 36=1 0
40=1 5=0 4=1 0
2=1 48=1 8=1 0
8=1 69=0 32=1 0
14=0 39=1 34=0 0
3=0 64=0 18=1 0
30=0 68=0 55=0 0
36=1 35=0 2=0 0
42=0 29=0 35=1 0
54=1 32=1 39=0 0
1=0 43=1 38=1 0
43=0 70=0 3=1 0
60=0 29=1 52=1 0
66=1 69=0 58=1 0
3=0 6=0 53=1 0
75=1 62=1 71=0 0
55=0 68=1 27=0 0
22=0 38=1 58=1 0
35=0 61=1 66=0 0
9=1 4=0 55=0 0
35=1 63=1 50=0 0
22=1 50=0 3=0 0
37=1 11=1 28=1 0
66=0 69=0 59=0 0
51=0 75=0 36=1 0
24=0 71=0 17=0 0
44=1 5=0 25=1 0
19=1 67=0 30=0 0
60=0 6=0 59=0 0
31=1 22=0 75=1 0
38=1 24=1 22=1 0
